p tdp 86 85
70 17
76 27
19 78
21 43
40 33
22 72
60 50
23 75
83 48
45 54
53 77
28 11
68 58
12 70
6 81
66 73
35 14
86 10
65 82
74 55
48 38
35 41
64 8
25 43
10 50
7 36
78 63
4 78
1 42
56 7
25 26
37 4
84 43
74 36
59 23
44 40
53 69
73 67
45 85
1 11
6 82
20 9
50 57
82 29
39 33
67 62
82 76
16 32
71 80
80 1
61 20
82 79
77 51
30 53
29 85
50 13
83 86
68 42
78 69
9 52
3 47
3 49
16 8
24 85
79 33
31 15
15 18
84 35
62 32
38 73
22 59
70 14
2 31
2 63
34 19
45 5
65 68
53 43
42 15
25 61
3 10
22 41
7 52
46 30
55 8
